Copyright (C) 2013-2015, Filipe Brandao
Build (method = -2)
  #dp: 3658
  Step-3' Graph: 133 vertices and 1736 arcs (0.00s)
  Step-4' Graph: 98 vertices and 1666 arcs (0.00s)
  #V4/#V3 = 0.74
  #A4/#A3 = 0.96
Ready! (0.00s)
Optimize a model with 181 rows, 1667 columns and 4809 nonzeros
Presolve removed 42 rows and 49 columns
Presolve time: 0.02s
Presolved: 139 rows, 1618 columns, 4450 nonzeros
Variable types: 0 continuous, 1618 integer (1284 binary)
Found heuristic solution: objective 62.0000000
Optimize a model with 139 rows, 1618 columns and 4450 nonzeros
Presolved: 139 rows, 1618 columns, 4450 nonzeros

Root barrier log...

Ordering time: 0.00s

Barrier statistics:
 AA' NZ     : 2.317e+03
 Factor NZ  : 5.446e+03
 Factor Ops : 2.775e+05 (less than 1 second per iteration)
 Threads    : 1

                  Objective                Residual
Iter       Primal          Dual         Primal    Dual     Compl     Time
   0   1.88319295e+03 -4.72855598e+03  1.13e+04 1.88e-01  1.29e+01     0s
   1   3.51004943e+02 -1.03693590e+03  1.14e+03 5.55e-16  1.46e+00     0s
   2   1.15200745e+02 -2.33437466e+02  9.06e+01 5.55e-16  1.80e-01     0s
   3   6.60099401e+01 -3.72484603e+00  7.46e+00 3.89e-16  2.62e-02     0s
   4   5.80071763e+01  3.03762619e+01  2.73e+00 2.82e-16  9.71e-03     0s
   5   5.42763159e+01  3.62663115e+01  1.45e+00 2.87e-16  6.14e-03     0s
   6   5.09962438e+01  4.50060176e+01  5.19e-01 2.29e-16  2.02e-03     0s
   7   4.93531693e+01  4.72124404e+01  1.15e-01 2.58e-16  6.99e-04     0s
   8   4.90347648e+01  4.88396121e+01  4.33e-03 3.35e-16  6.20e-05     0s
   9   4.90002566e+01  4.89994832e+01  5.02e-07 3.33e-16  2.39e-07     0s
  10   4.90000003e+01  4.89999995e+01  3.91e-12 3.33e-16  2.39e-10     0s
  11   4.90000000e+01  4.90000000e+01  3.59e-12 3.33e-16  2.46e-16     0s

Barrier solved model in 11 iterations and 0.01 seconds
Optimal objective 4.90000000e+01


Root relaxation: objective 4.900000e+01, 745 iterations, 0.01 seconds

    Nodes    |    Current Node    |     Objective Bounds      |     Work
 Expl Unexpl |  Obj  Depth IntInf | Incumbent    BestBd   Gap | It/Node Time

*    0     0               0      49.0000000   49.00000  0.00%     -    0s

Explored 0 nodes (745 simplex iterations) in 0.04 seconds
Thread count was 1 (of 4 available processors)

Optimal solution found (tolerance 0.00e+00)
Best objective 4.900000000000e+01, best bound 4.900000000000e+01, gap 0.0%
Preprocessing time: 0.00 seconds
Gurobi run time: 0.04 seconds
Total run time: 0.04 seconds
Objective: 49
Solution:
1 x [i=1, i=64]
2 x [i=2, i=66]
2 x [i=3, i=72]
1 x [i=4, i=63]
1 x [i=4, i=65]
1 x [i=5, i=62]
1 x [i=5, i=67]
1 x [i=6, i=61]
1 x [i=7, i=59]
1 x [i=7, i=60]
1 x [i=8, i=68]
1 x [i=9, i=69]
1 x [i=10, i=58]
1 x [i=11, i=56]
1 x [i=12, i=53]
1 x [i=13, i=54]
1 x [i=14, i=55]
1 x [i=15, i=57]
1 x [i=16, i=71]
1 x [i=17, i=52]
1 x [i=17, i=73]
1 x [i=18, i=74]
1 x [i=19, i=49]
1 x [i=20, i=70]
1 x [i=21, i=75]
1 x [i=22, i=48]
1 x [i=23]
1 x [i=23, i=50]
2 x [i=24, i=47]
1 x [i=25]
1 x [i=26, i=46]
1 x [i=26, i=79, i=80]
1 x [i=27, i=45]
1 x [i=27, i=51]
1 x [i=28, i=60]
1 x [i=29, i=44]
1 x [i=30, i=43]
1 x [i=31, i=77, i=83]
1 x [i=32, i=42]
1 x [i=32, i=81]
1 x [i=33, i=41]
1 x [i=34, i=76, i=78]
1 x [i=35, i=70, i=82]
1 x [i=36, i=39]
1 x [i=36, i=40]
1 x [i=37, i=38]
